p tw 264 4181 8 
1 9 
1 11 
1 221 
1 223 
2 7 
2 10 
2 12 
2 222 
2 224 
3 8 
3 10 
3 213 
4 7 
4 9 
4 214 
5 9 
5 10 
5 215 
6 7 
6 8 
6 216 
11 18 
11 19 
11 223 
12 17 
12 20 
12 224 
13 18 
13 20 
13 23 
14 17 
14 19 
14 24 
15 19 
15 20 
15 25 
16 17 
16 18 
16 26 
21 28 
21 29 
21 31 
21 225 
21 227 
22 27 
22 30 
22 32 
22 226 
22 228 
23 28 
23 30 
24 27 
24 29 
25 29 
25 30 
26 27 
26 28 
31 38 
31 39 
31 227 
32 37 
32 40 
32 228 
33 38 
33 40 
33 43 
34 37 
34 39 
34 44 
35 39 
35 40 
35 45 
36 37 
36 38 
36 46 
41 48 
41 49 
41 51 
41 229 
41 231 
42 47 
42 50 
42 52 
42 230 
42 232 
43 48 
43 50 
44 47 
44 49 
45 49 
45 50 
46 47 
46 48 
51 58 
51 59 
51 231 
52 57 
52 60 
52 232 
53 58 
53 60 
53 63 
54 57 
54 59 
54 64 
55 59 
55 60 
55 65 
56 57 
56 58 
56 66 
61 68 
61 69 
61 71 
61 233 
61 235 
62 67 
62 70 
62 72 
62 234 
62 236 
63 68 
63 70 
64 67 
64 69 
65 69 
65 70 
66 67 
66 68 
71 78 
71 79 
71 235 
72 77 
72 80 
72 236 
73 78 
73 80 
73 83 
74 77 
74 79 
74 84 
75 79 
75 80 
75 85 
76 77 
76 78 
76 86 
81 88 
81 89 
81 91 
81 237 
81 239 
82 87 
82 90 
82 92 
82 238 
82 240 
83 88 
83 90 
84 87 
84 89 
85 89 
85 90 
86 87 
86 88 
91 98 
91 99 
91 239 
92 97 
92 100 
92 240 
93 98 
93 100 
93 103 
94 97 
94 99 
94 104 
95 99 
95 100 
95 105 
96 97 
96 98 
96 106 
101 108 
101 109 
101 111 
101 241 
101 243 
102 107 
102 110 
102 112 
102 242 
102 244 
103 108 
103 110 
104 107 
104 109 
105 109 
105 110 
106 107 
106 108 
111 118 
111 119 
111 243 
112 117 
112 120 
112 244 
113 118 
113 120 
113 123 
114 117 
114 119 
114 124 
115 119 
115 120 
115 125 
116 117 
116 118 
116 126 
121 128 
121 129 
121 131 
121 245 
121 247 
122 127 
122 130 
122 132 
122 246 
122 248 
123 128 
123 130 
124 127 
124 129 
125 129 
125 130 
126 127 
126 128 
131 138 
131 139 
131 247 
132 137 
132 140 
132 248 
133 138 
133 140 
133 143 
134 137 
134 139 
134 144 
135 139 
135 140 
135 145 
136 137 
136 138 
136 146 
141 148 
141 149 
141 151 
141 249 
141 251 
142 147 
142 150 
142 152 
142 250 
142 252 
143 148 
143 150 
144 147 
144 149 
145 149 
145 150 
146 147 
146 148 
151 158 
151 159 
151 251 
152 157 
152 160 
152 252 
153 158 
153 160 
153 163 
154 157 
154 159 
154 164 
155 159 
155 160 
155 165 
156 157 
156 158 
156 166 
161 168 
161 169 
161 171 
161 253 
161 255 
162 167 
162 170 
162 172 
162 254 
162 256 
163 168 
163 170 
164 167 
164 169 
165 169 
165 170 
166 167 
166 168 
171 178 
171 179 
171 255 
172 177 
172 180 
172 256 
173 178 
173 180 
173 183 
174 177 
174 179 
174 184 
175 179 
175 180 
175 185 
176 177 
176 178 
176 186 
181 188 
181 189 
181 191 
181 257 
181 259 
182 187 
182 190 
182 192 
182 258 
182 260 
183 188 
183 190 
184 187 
184 189 
185 189 
185 190 
186 187 
186 188 
191 198 
191 199 
191 259 
192 197 
192 200 
192 260 
193 198 
193 200 
193 203 
194 197 
194 199 
194 204 
195 199 
195 200 
195 205 
196 197 
196 198 
196 206 
201 208 
201 209 
201 211 
201 261 
201 263 
202 207 
202 210 
202 212 
202 262 
202 264 
203 208 
203 210 
204 207 
204 209 
205 209 
205 210 
206 207 
206 208 
211 218 
211 219 
211 263 
212 217 
212 220 
212 264 
213 218 
213 220 
214 217 
214 219 
215 219 
215 220 
216 217 
216 218 
221 222 
223 224 
225 226 
227 228 
229 230 
231 232 
233 234 
235 236 
237 238 
239 240 
241 242 
243 244 
245 246 
247 248 
249 250 
251 252 
253 254 
255 256 
257 258 
259 260 
261 262 
263 264 
